BAYES
440
2 2 2 2 2 2 2 2 2 2 2 2 2 2 2 2 2 2 2 2 2 2 2 2 2 2 2 2 2 2 2 2 2 2 2 2 2 2 2 2 2 2 2 2 2 2 2 2 2 2 2 2 2 2 2 2 2 2 2 2 2 2 2 2 2 2 2 2 2 2 2 2 2 2 2 2 2 2 2 2 2 2 2 2 2 2 2 2 2 2 2 2 2 2 2 2 2 2 2 2 2 2 2 2 2 2 2 2 2 2 2 2 2 2 2 2 2 2 2 2 2 2 2 2 2 2 2 2 2 2 2 2 2 2 2 2 2 2 2 2 2 2 2 2 2 2 2 2 2 2 2 2 2 2 2 2 2 2 2 2 2 2 2 2 2 2 2 2 2 2 2 2 2 2 2 2 2 2 2 2 2 2 2 2 2 2 2 2 2 2 2 2 2 2 2 2 2 2 2 2 2 2 2 2 2 2 2 2 2 2 2 2 2 2 2 2 2 2 2 2 2 2 2 2 2 2 2 2 2 2 2 2 2 2 2 2 2 2 2 2 2 2 2 2 2 2 2 2 2 2 2 2 2 2 2 2 2 2 2 2 2 2 2 2 2 2 2 2 2 2 2 2 2 2 2 2 2 2 2 2 2 2 2 2 2 2 2 2 2 2 2 2 2 2 2 2 2 2 2 2 2 2 2 2 2 2 2 2 2 2 2 2 2 2 2 2 2 2 2 2 2 2 2 2 2 2 2 2 2 2 2 2 2 2 2 2 2 2 2 2 2 2 2 2 2 2 2 2 2 2 2 2 2 2 2 2 2 2 2 2 2 2 2 2 2 2 2 2 2 2 2 2 2 2 2 2 2 2 2 2 2 2 2 2 2 2 2 2 2 2 2 2 2 2 2 2 2 2 2 2 2 2 2 2 2 2 2 2 2 2 2 2 2 2 2 2 2 2 2 2 2 2 2 2 2 2 2 2 2 2 2 2 2 2 2 2 2 2 2 2 
440
3	45	372	0
1	1
3	294	365	2
2	326	3
3	126	212	4
3	333	78	5
3	347	401	6
3	248	255	7
3	250	30	8
3	109	145	9
3	233	19	10
3	140	353	11
3	298	125	12
3	186	256	13
4	140	352	56	14
5	29	412	334	434	15
3	140	82	16
3	167	32	17
2	41	18
3	298	408	19
3	352	133	20
3	125	287	21
2	303	22
3	232	130	23
3	53	340	24
3	168	239	25
2	281	26
2	264	27
3	172	145	28
3	254	207	29
3	187	297	30
3	181	357	31
3	297	181	32
3	128	338	33
4	363	346	418	34
3	352	13	35
3	205	268	36
3	312	26	37
2	120	38
3	352	193	39
3	418	196	40
3	30	76	41
2	212	42
3	376	194	43
3	10	107	44
1	45
3	352	112	46
3	283	65	47
3	124	32	48
2	168	49
3	324	336	50
3	304	125	51
2	290	52
2	428	53
3	410	24	54
3	60	51	55
3	307	188	56
3	232	81	57
1	58
3	83	352	59
3	1	294	60
2	2	61
3	329	174	62
4	18	165	380	63
4	264	69	400	64
3	1	173	65
3	116	292	66
4	283	242	148	67
2	9	68
2	283	69
2	357	70
3	47	218	71
3	348	146	72
3	140	303	73
3	69	23	74
3	271	39	75
4	283	111	400	76
1	77
4	125	349	387	78
3	158	331	79
3	395	95	80
2	268	81
2	148	82
1	83
2	408	84
1	85
3	283	164	86
3	222	410	87
2	335	88
2	301	89
4	108	404	279	90
2	123	91
1	92
3	310	294	93
3	93	59	94
3	232	9	95
3	170	332	96
3	202	27	97
3	352	86	98
3	384	228	99
2	374	100
1	101
3	280	414	102
1	103
3	371	340	104
3	191	161	105
3	221	76	106
3	277	36	107
3	69	16	108
1	109
3	371	294	110
3	121	27	111
3	298	126	112
4	202	195	173	113
3	143	31	114
4	353	157	70	115
3	235	322	116
2	44	117
3	223	17	118
3	438	75	119
3	241	321	120
3	145	418	121
1	122
3	140	193	123
3	371	247	124
2	109	125
1	126
2	253	127
4	289	394	30	128
3	27	162	129
2	400	130
3	251	138	131
3	352	277	132
3	109	145	133
3	103	125	134
1	135
2	90	136
1	137
2	369	138
3	168	195	139
2	45	140
3	277	171	141
3	156	430	142
3	294	400	143
3	108	236	144
1	145
3	157	256	146
1	147
3	168	431	148
2	333	149
3	145	386	150
2	354	151
3	350	87	152
3	337	419	153
3	167	245	154
2	67	155
3	301	30	156
3	27	232	157
2	323	158
1	159
3	249	247	160
3	296	82	161
3	353	406	162
3	222	40	163
3	140	357	164
3	254	425	165
2	66	166
2	187	167
1	168
3	162	184	169
3	348	435	170
3	249	181	171
1	172
4	168	45	387	173
3	49	213	174
2	86	175
3	140	266	176
2	169	177
3	180	176	178
2	145	179
1	180
3	428	69	181
3	91	56	182
3	289	42	183
3	48	357	184
3	172	9	185
3	167	297	186
1	187
2	424	188
2	108	189
1	190
3	251	216	191
4	126	298	378	192
4	202	1	266	193
3	398	105	194
4	283	68	256	195
3	89	294	196
1	197
3	320	390	198
2	413	199
2	204	200
3	152	323	201
2	180	202
3	82	181	203
3	94	127	204
3	232	310	205
3	299	427	206
3	100	215	207
3	397	151	208
3	206	417	209
3	87	196	210
3	352	30	211
3	283	394	212
3	324	434	213
3	53	374	214
3	351	49	215
3	199	339	216
3	428	283	217
3	103	436	218
2	156	219
4	283	157	143	220
3	167	103	221
1	222
3	298	124	223
4	189	88	141	224
3	34	281	225
3	172	179	226
4	34	275	342	227
3	140	389	228
2	142	229
3	133	234	230
3	243	212	231
2	1	232
3	69	290	233
2	143	234
3	256	114	235
3	232	379	236
1	237
3	360	79	238
2	247	239
3	8	305	240
3	368	134	241
3	45	53	242
2	222	243
3	316	54	244
3	145	399	245
3	35	46	246
3	53	283	247
3	414	200	248
3	140	70	249
2	220	250
2	385	251
3	123	64	252
3	316	231	253
2	113	254
3	78	246	255
3	187	103	256
3	222	383	257
1	258
2	278	259
3	150	311	260
3	264	68	261
3	423	284	262
3	298	126	263
1	264
2	37	265
3	27	25	266
3	352	182	267
4	428	374	215	268
3	179	300	269
3	55	163	270
2	14	271
3	291	259	272
3	192	257	273
3	397	108	274
3	26	330	275
1	276
2	64	277
3	303	97	278
3	413	369	279
3	251	123	280
4	154	217	12	281
3	294	193	282
1	283
3	115	129	284
2	62	285
3	61	263	286
3	13	250	287
2	227	288
3	243	112	289
4	27	68	313	290
3	126	198	291
3	115	50	292
1	293
2	352	294
4	189	432	328	295
3	73	208	296
2	103	297
2	304	298
3	264	177	299
3	250	221	300
1	301
1	302
3	53	69	303
1	304
2	300	305
3	358	200	306
3	232	181	307
1	308
3	317	344	309
2	83	310
3	110	391	311
3	373	20	312
2	164	313
4	49	45	259	314
3	183	229	315
3	103	301	316
2	324	317
3	210	200	318
4	108	272	71	319
3	232	175	320
3	69	84	321
3	1	52	322
3	428	233	323
3	304	126	324
5	411	225	33	161	325
3	102	306	326
3	189	155	327
3	439	429	328
3	273	265	329
2	341	330
3	324	176	331
3	180	25	332
3	211	46	333
3	192	41	334
3	267	155	335
3	98	332	336
3	178	132	337
3	89	416	338
3	101	277	339
2	375	340
3	386	387	341
3	57	113	342
3	309	2	343
3	298	371	344
1	345
2	245	346
3	378	263	347
2	0	348
2	150	349
3	89	186	350
1	351
1	352
3	303	217	353
3	45	217	354
4	362	369	228	355
1	356
3	202	168	357
3	125	269	358
3	219	4	359
3	5	131	360
3	251	162	361
3	203	274	362
2	118	363
3	11	307	364
3	125	341	365
1	366
3	278	260	367
3	294	409	368
3	168	214	369
4	99	6	201	370
2	126	371
3	27	80	372
3	309	341	373
4	45	69	431	374
4	304	320	261	375
3	109	305	376
4	367	144	38	377
4	428	111	86	378
3	98	12	379
3	281	392	380
2	370	381
2	98	382
3	219	104	383
3	149	365	384
1	385
2	409	386
3	27	53	387
1	388
4	428	139	97	389
3	133	382	390
3	187	352	391
3	133	240	392
3	251	277	393
3	23	261	394
3	385	1	395
4	437	166	117	396
2	407	397
3	286	26	398
3	27	313	399
3	428	164	400
3	72	31	401
3	371	270	402
2	64	403
3	421	64	404
2	7	405
2	249	406
1	407
3	187	399	408
3	1	175	409
2	4	410
3	343	21	411
3	420	361	412
3	364	424	413
4	402	245	22	414
2	319	415
3	104	231	416
3	393	315	417
3	125	1	418
3	271	282	419
3	428	108	420
3	428	16	421
2	81	422
3	310	64	423
3	264	70	424
3	301	128	425
1	426
3	352	359	427
1	428
3	96	106	429
3	103	94	430
2	97	431
2	238	432
1	433
2	214	434
3	157	324	435
3	23	230	436
3	162	74	437
3	277	160	438
3	244	127	439

8
 0.000000 1.000000
 1.000000 0.000000
 1.000000 0.000000
 1.000000 0.000000

2
 0.500000 0.500000

8
 0.000000 1.000000
 1.000000 0.000000
 1.000000 0.000000
 1.000000 0.000000

4
 0.000000 1.000000
 1.000000 0.000000

8
 0.000000 1.000000
 0.000000 1.000000
 0.000000 1.000000
 1.000000 0.000000

8
 1.000000 0.000000
 1.000000 0.000000
 1.000000 0.000000
 0.000000 1.000000

8
 0.000000 1.000000
 0.000000 1.000000
 0.000000 1.000000
 1.000000 0.000000

8
 0.000000 1.000000
 1.000000 0.000000
 1.000000 0.000000
 1.000000 0.000000

8
 1.000000 0.000000
 0.000000 1.000000
 0.000000 1.000000
 0.000000 1.000000

8
 0.000000 1.000000
 1.000000 0.000000
 1.000000 0.000000
 1.000000 0.000000

8
 0.000000 1.000000
 1.000000 0.000000
 1.000000 0.000000
 1.000000 0.000000

8
 1.000000 0.000000
 0.000000 1.000000
 0.000000 1.000000
 0.000000 1.000000

8
 0.000000 1.000000
 0.000000 1.000000
 0.000000 1.000000
 1.000000 0.000000

8
 0.000000 1.000000
 0.000000 1.000000
 0.000000 1.000000
 1.000000 0.000000

16
 0.000000 1.000000
 0.000000 1.000000
 0.000000 1.000000
 0.000000 1.000000
 0.000000 1.000000
 0.000000 1.000000
 0.000000 1.000000
 1.000000 0.000000

32
 0.000000 1.000000
 0.000000 1.000000
 0.000000 1.000000
 0.000000 1.000000
 0.000000 1.000000
 0.000000 1.000000
 0.000000 1.000000
 0.000000 1.000000
 0.000000 1.000000
 0.000000 1.000000
 0.000000 1.000000
 0.000000 1.000000
 0.000000 1.000000
 0.000000 1.000000
 0.000000 1.000000
 1.000000 0.000000

8
 0.000000 1.000000
 0.000000 1.000000
 0.000000 1.000000
 1.000000 0.000000

8
 1.000000 0.000000
 0.000000 1.000000
 0.000000 1.000000
 0.000000 1.000000

4
 0.000000 1.000000
 1.000000 0.000000

8
 1.000000 0.000000
 1.000000 0.000000
 1.000000 0.000000
 0.000000 1.000000

8
 0.000000 1.000000
 0.000000 1.000000
 0.000000 1.000000
 1.000000 0.000000

8
 1.000000 0.000000
 1.000000 0.000000
 1.000000 0.000000
 0.000000 1.000000

4
 0.000000 1.000000
 1.000000 0.000000

8
 0.000000 1.000000
 1.000000 0.000000
 1.000000 0.000000
 1.000000 0.000000

8
 1.000000 0.000000
 1.000000 0.000000
 1.000000 0.000000
 0.000000 1.000000

8
 0.000000 1.000000
 1.000000 0.000000
 1.000000 0.000000
 1.000000 0.000000

4
 0.000000 1.000000
 1.000000 0.000000

4
 0.000000 1.000000
 1.000000 0.000000

8
 0.000000 1.000000
 1.000000 0.000000
 1.000000 0.000000
 1.000000 0.000000

8
 0.000000 1.000000
 1.000000 0.000000
 1.000000 0.000000
 1.000000 0.000000

8
 0.000000 1.000000
 0.000000 1.000000
 0.000000 1.000000
 1.000000 0.000000

8
 0.000000 1.000000
 0.000000 1.000000
 0.000000 1.000000
 1.000000 0.000000

8
 0.000000 1.000000
 0.000000 1.000000
 0.000000 1.000000
 1.000000 0.000000

8
 0.000000 1.000000
 1.000000 0.000000
 1.000000 0.000000
 1.000000 0.000000

16
 0.000000 1.000000
 1.000000 0.000000
 1.000000 0.000000
 1.000000 0.000000
 1.000000 0.000000
 1.000000 0.000000
 1.000000 0.000000
 1.000000 0.000000

8
 1.000000 0.000000
 0.000000 1.000000
 0.000000 1.000000
 0.000000 1.000000

8
 1.000000 0.000000
 1.000000 0.000000
 1.000000 0.000000
 0.000000 1.000000

8
 0.000000 1.000000
 0.000000 1.000000
 0.000000 1.000000
 1.000000 0.000000

4
 0.000000 1.000000
 1.000000 0.000000

8
 1.000000 0.000000
 1.000000 0.000000
 1.000000 0.000000
 0.000000 1.000000

8
 0.000000 1.000000
 1.000000 0.000000
 1.000000 0.000000
 1.000000 0.000000

8
 0.000000 1.000000
 1.000000 0.000000
 1.000000 0.000000
 1.000000 0.000000

4
 0.000000 1.000000
 1.000000 0.000000

8
 0.000000 1.000000
 0.000000 1.000000
 0.000000 1.000000
 1.000000 0.000000

8
 0.000000 1.000000
 0.000000 1.000000
 0.000000 1.000000
 1.000000 0.000000

2
 0.500000 0.500000

8
 0.000000 1.000000
 0.000000 1.000000
 0.000000 1.000000
 1.000000 0.000000

8
 1.000000 0.000000
 0.000000 1.000000
 0.000000 1.000000
 0.000000 1.000000

8
 0.000000 1.000000
 0.000000 1.000000
 0.000000 1.000000
 1.000000 0.000000

4
 0.000000 1.000000
 1.000000 0.000000

8
 1.000000 0.000000
 1.000000 0.000000
 1.000000 0.000000
 0.000000 1.000000

8
 0.000000 1.000000
 1.000000 0.000000
 1.000000 0.000000
 1.000000 0.000000

4
 0.000000 1.000000
 1.000000 0.000000

4
 0.000000 1.000000
 1.000000 0.000000

8
 0.000000 1.000000
 1.000000 0.000000
 1.000000 0.000000
 1.000000 0.000000

8
 1.000000 0.000000
 1.000000 0.000000
 1.000000 0.000000
 0.000000 1.000000

8
 0.000000 1.000000
 1.000000 0.000000
 1.000000 0.000000
 1.000000 0.000000

8
 1.000000 0.000000
 0.000000 1.000000
 0.000000 1.000000
 0.000000 1.000000

2
 0.500000 0.500000

8
 1.000000 0.000000
 1.000000 0.000000
 1.000000 0.000000
 0.000000 1.000000

8
 0.000000 1.000000
 1.000000 0.000000
 1.000000 0.000000
 1.000000 0.000000

4
 0.000000 1.000000
 1.000000 0.000000

8
 0.000000 1.000000
 1.000000 0.000000
 1.000000 0.000000
 1.000000 0.000000

16
 0.000000 1.000000
 0.000000 1.000000
 0.000000 1.000000
 0.000000 1.000000
 0.000000 1.000000
 0.000000 1.000000
 0.000000 1.000000
 1.000000 0.000000

16
 0.000000 1.000000
 0.000000 1.000000
 0.000000 1.000000
 0.000000 1.000000
 0.000000 1.000000
 0.000000 1.000000
 0.000000 1.000000
 1.000000 0.000000

8
 0.000000 1.000000
 0.000000 1.000000
 0.000000 1.000000
 1.000000 0.000000

8
 0.000000 1.000000
 0.000000 1.000000
 0.000000 1.000000
 1.000000 0.000000

16
 0.000000 1.000000
 1.000000 0.000000
 1.000000 0.000000
 1.000000 0.000000
 1.000000 0.000000
 1.000000 0.000000
 1.000000 0.000000
 1.000000 0.000000

4
 0.000000 1.000000
 1.000000 0.000000

4
 0.000000 1.000000
 1.000000 0.000000

4
 0.000000 1.000000
 1.000000 0.000000

8
 0.000000 1.000000
 0.000000 1.000000
 0.000000 1.000000
 1.000000 0.000000

8
 0.000000 1.000000
 1.000000 0.000000
 1.000000 0.000000
 1.000000 0.000000

8
 1.000000 0.000000
 0.000000 1.000000
 0.000000 1.000000
 0.000000 1.000000

8
 1.000000 0.000000
 1.000000 0.000000
 1.000000 0.000000
 0.000000 1.000000

8
 0.000000 1.000000
 1.000000 0.000000
 1.000000 0.000000
 1.000000 0.000000

16
 0.000000 1.000000
 0.000000 1.000000
 0.000000 1.000000
 0.000000 1.000000
 0.000000 1.000000
 0.000000 1.000000
 0.000000 1.000000
 1.000000 0.000000

2
 0.500000 0.500000

16
 0.000000 1.000000
 1.000000 0.000000
 1.000000 0.000000
 1.000000 0.000000
 1.000000 0.000000
 1.000000 0.000000
 1.000000 0.000000
 1.000000 0.000000

8
 0.000000 1.000000
 1.000000 0.000000
 1.000000 0.000000
 1.000000 0.000000

8
 0.000000 1.000000
 0.000000 1.000000
 0.000000 1.000000
 1.000000 0.000000

4
 0.000000 1.000000
 1.000000 0.000000

4
 0.000000 1.000000
 1.000000 0.000000

2
 0.500000 0.500000

4
 0.000000 1.000000
 1.000000 0.000000

2
 0.500000 0.500000

8
 0.000000 1.000000
 1.000000 0.000000
 1.000000 0.000000
 1.000000 0.000000

8
 0.000000 1.000000
 0.000000 1.000000
 0.000000 1.000000
 1.000000 0.000000

4
 0.000000 1.000000
 1.000000 0.000000

4
 0.000000 1.000000
 1.000000 0.000000

16
 0.000000 1.000000
 1.000000 0.000000
 1.000000 0.000000
 1.000000 0.000000
 1.000000 0.000000
 1.000000 0.000000
 1.000000 0.000000
 1.000000 0.000000

4
 0.000000 1.000000
 1.000000 0.000000

2
 0.500000 0.500000

8
 1.000000 0.000000
 1.000000 0.000000
 1.000000 0.000000
 0.000000 1.000000

8
 0.000000 1.000000
 1.000000 0.000000
 1.000000 0.000000
 1.000000 0.000000

8
 1.000000 0.000000
 0.000000 1.000000
 0.000000 1.000000
 0.000000 1.000000

8
 1.000000 0.000000
 0.000000 1.000000
 0.000000 1.000000
 0.000000 1.000000

8
 0.000000 1.000000
 0.000000 1.000000
 0.000000 1.000000
 1.000000 0.000000

8
 0.000000 1.000000
 0.000000 1.000000
 0.000000 1.000000
 1.000000 0.000000

8
 0.000000 1.000000
 0.000000 1.000000
 0.000000 1.000000
 1.000000 0.000000

4
 0.000000 1.000000
 1.000000 0.000000

2
 0.500000 0.500000

8
 0.000000 1.000000
 0.000000 1.000000
 0.000000 1.000000
 1.000000 0.000000

2
 0.500000 0.500000

8
 0.000000 1.000000
 0.000000 1.000000
 0.000000 1.000000
 1.000000 0.000000

8
 0.000000 1.000000
 0.000000 1.000000
 0.000000 1.000000
 1.000000 0.000000

8
 1.000000 0.000000
 0.000000 1.000000
 0.000000 1.000000
 0.000000 1.000000

8
 0.000000 1.000000
 1.000000 0.000000
 1.000000 0.000000
 1.000000 0.000000

8
 0.000000 1.000000
 1.000000 0.000000
 1.000000 0.000000
 1.000000 0.000000

2
 0.500000 0.500000

8
 1.000000 0.000000
 0.000000 1.000000
 0.000000 1.000000
 0.000000 1.000000

8
 0.000000 1.000000
 0.000000 1.000000
 0.000000 1.000000
 1.000000 0.000000

8
 0.000000 1.000000
 1.000000 0.000000
 1.000000 0.000000
 1.000000 0.000000

16
 0.000000 1.000000
 0.000000 1.000000
 0.000000 1.000000
 0.000000 1.000000
 0.000000 1.000000
 0.000000 1.000000
 0.000000 1.000000
 1.000000 0.000000

8
 0.000000 1.000000
 0.000000 1.000000
 0.000000 1.000000
 1.000000 0.000000

16
 0.000000 1.000000
 1.000000 0.000000
 1.000000 0.000000
 1.000000 0.000000
 1.000000 0.000000
 1.000000 0.000000
 1.000000 0.000000
 1.000000 0.000000

8
 0.000000 1.000000
 1.000000 0.000000
 1.000000 0.000000
 1.000000 0.000000

4
 0.000000 1.000000
 1.000000 0.000000

8
 0.000000 1.000000
 0.000000 1.000000
 0.000000 1.000000
 1.000000 0.000000

8
 0.000000 1.000000
 0.000000 1.000000
 0.000000 1.000000
 1.000000 0.000000

8
 0.000000 1.000000
 0.000000 1.000000
 0.000000 1.000000
 1.000000 0.000000

8
 1.000000 0.000000
 0.000000 1.000000
 0.000000 1.000000
 0.000000 1.000000

2
 0.500000 0.500000

8
 0.000000 1.000000
 0.000000 1.000000
 0.000000 1.000000
 1.000000 0.000000

8
 0.000000 1.000000
 0.000000 1.000000
 0.000000 1.000000
 1.000000 0.000000

4
 0.000000 1.000000
 1.000000 0.000000

2
 0.500000 0.500000

4
 0.000000 1.000000
 1.000000 0.000000

16
 0.000000 1.000000
 1.000000 0.000000
 1.000000 0.000000
 1.000000 0.000000
 1.000000 0.000000
 1.000000 0.000000
 1.000000 0.000000
 1.000000 0.000000

8
 1.000000 0.000000
 1.000000 0.000000
 1.000000 0.000000
 0.000000 1.000000

4
 0.000000 1.000000
 1.000000 0.000000

8
 1.000000 0.000000
 1.000000 0.000000
 1.000000 0.000000
 0.000000 1.000000

8
 1.000000 0.000000
 1.000000 0.000000
 1.000000 0.000000
 0.000000 1.000000

8
 0.000000 1.000000
 0.000000 1.000000
 0.000000 1.000000
 1.000000 0.000000

8
 0.000000 1.000000
 0.000000 1.000000
 0.000000 1.000000
 1.000000 0.000000

2
 0.500000 0.500000

4
 0.000000 1.000000
 1.000000 0.000000

2
 0.500000 0.500000

4
 0.000000 1.000000
 1.000000 0.000000

8
 0.000000 1.000000
 1.000000 0.000000
 1.000000 0.000000
 1.000000 0.000000

4
 0.000000 1.000000
 1.000000 0.000000

8
 0.000000 1.000000
 1.000000 0.000000
 1.000000 0.000000
 1.000000 0.000000

8
 0.000000 1.000000
 1.000000 0.000000
 1.000000 0.000000
 1.000000 0.000000

8
 0.000000 1.000000
 0.000000 1.000000
 0.000000 1.000000
 1.000000 0.000000

8
 0.000000 1.000000
 1.000000 0.000000
 1.000000 0.000000
 1.000000 0.000000

2
 0.500000 0.500000

8
 1.000000 0.000000
 1.000000 0.000000
 1.000000 0.000000
 0.000000 1.000000

2
 0.500000 0.500000

8
 0.000000 1.000000
 0.000000 1.000000
 0.000000 1.000000
 1.000000 0.000000

4
 0.000000 1.000000
 1.000000 0.000000

8
 0.000000 1.000000
 1.000000 0.000000
 1.000000 0.000000
 1.000000 0.000000

4
 0.000000 1.000000
 1.000000 0.000000

8
 1.000000 0.000000
 0.000000 1.000000
 0.000000 1.000000
 0.000000 1.000000

8
 0.000000 1.000000
 0.000000 1.000000
 0.000000 1.000000
 1.000000 0.000000

8
 0.000000 1.000000
 0.000000 1.000000
 0.000000 1.000000
 1.000000 0.000000

4
 0.000000 1.000000
 1.000000 0.000000

8
 0.000000 1.000000
 0.000000 1.000000
 0.000000 1.000000
 1.000000 0.000000

8
 0.000000 1.000000
 0.000000 1.000000
 0.000000 1.000000
 1.000000 0.000000

4
 0.000000 1.000000
 1.000000 0.000000

2
 0.500000 0.500000

8
 1.000000 0.000000
 1.000000 0.000000
 1.000000 0.000000
 0.000000 1.000000

8
 0.000000 1.000000
 0.000000 1.000000
 0.000000 1.000000
 1.000000 0.000000

8
 0.000000 1.000000
 1.000000 0.000000
 1.000000 0.000000
 1.000000 0.000000

8
 1.000000 0.000000
 1.000000 0.000000
 1.000000 0.000000
 0.000000 1.000000

8
 0.000000 1.000000
 0.000000 1.000000
 0.000000 1.000000
 1.000000 0.000000

8
 0.000000 1.000000
 1.000000 0.000000
 1.000000 0.000000
 1.000000 0.000000

4
 0.000000 1.000000
 1.000000 0.000000

4
 0.000000 1.000000
 1.000000 0.000000

2
 0.500000 0.500000

8
 0.000000 1.000000
 1.000000 0.000000
 1.000000 0.000000
 1.000000 0.000000

8
 0.000000 1.000000
 1.000000 0.000000
 1.000000 0.000000
 1.000000 0.000000

8
 1.000000 0.000000
 1.000000 0.000000
 1.000000 0.000000
 0.000000 1.000000

2
 0.500000 0.500000

16
 0.000000 1.000000
 1.000000 0.000000
 1.000000 0.000000
 1.000000 0.000000
 1.000000 0.000000
 1.000000 0.000000
 1.000000 0.000000
 1.000000 0.000000

8
 1.000000 0.000000
 1.000000 0.000000
 1.000000 0.000000
 0.000000 1.000000

4
 0.000000 1.000000
 1.000000 0.000000

8
 0.000000 1.000000
 1.000000 0.000000
 1.000000 0.000000
 1.000000 0.000000

4
 0.000000 1.000000
 1.000000 0.000000

8
 1.000000 0.000000
 1.000000 0.000000
 1.000000 0.000000
 0.000000 1.000000

4
 0.000000 1.000000
 1.000000 0.000000

2
 0.500000 0.500000

8
 0.000000 1.000000
 1.000000 0.000000
 1.000000 0.000000
 1.000000 0.000000

8
 0.000000 1.000000
 1.000000 0.000000
 1.000000 0.000000
 1.000000 0.000000

8
 0.000000 1.000000
 1.000000 0.000000
 1.000000 0.000000
 1.000000 0.000000

8
 1.000000 0.000000
 1.000000 0.000000
 1.000000 0.000000
 0.000000 1.000000

8
 0.000000 1.000000
 1.000000 0.000000
 1.000000 0.000000
 1.000000 0.000000

8
 0.000000 1.000000
 0.000000 1.000000
 0.000000 1.000000
 1.000000 0.000000

2
 0.500000 0.500000

4
 0.000000 1.000000
 1.000000 0.000000

4
 0.000000 1.000000
 1.000000 0.000000

2
 0.500000 0.500000

8
 1.000000 0.000000
 0.000000 1.000000
 0.000000 1.000000
 0.000000 1.000000

16
 0.000000 1.000000
 1.000000 0.000000
 1.000000 0.000000
 1.000000 0.000000
 1.000000 0.000000
 1.000000 0.000000
 1.000000 0.000000
 1.000000 0.000000

16
 0.000000 1.000000
 1.000000 0.000000
 1.000000 0.000000
 1.000000 0.000000
 1.000000 0.000000
 1.000000 0.000000
 1.000000 0.000000
 1.000000 0.000000

8
 0.000000 1.000000
 1.000000 0.000000
 1.000000 0.000000
 1.000000 0.000000

16
 0.000000 1.000000
 1.000000 0.000000
 1.000000 0.000000
 1.000000 0.000000
 1.000000 0.000000
 1.000000 0.000000
 1.000000 0.000000
 1.000000 0.000000

8
 0.000000 1.000000
 0.000000 1.000000
 0.000000 1.000000
 1.000000 0.000000

2
 0.500000 0.500000

8
 0.000000 1.000000
 1.000000 0.000000
 1.000000 0.000000
 1.000000 0.000000

4
 0.000000 1.000000
 1.000000 0.000000

4
 0.000000 1.000000
 1.000000 0.000000

8
 0.000000 1.000000
 0.000000 1.000000
 0.000000 1.000000
 1.000000 0.000000

4
 0.000000 1.000000
 1.000000 0.000000

8
 1.000000 0.000000
 1.000000 0.000000
 1.000000 0.000000
 0.000000 1.000000

8
 0.000000 1.000000
 1.000000 0.000000
 1.000000 0.000000
 1.000000 0.000000

8
 0.000000 1.000000
 0.000000 1.000000
 0.000000 1.000000
 1.000000 0.000000

8
 0.000000 1.000000
 1.000000 0.000000
 1.000000 0.000000
 1.000000 0.000000

8
 1.000000 0.000000
 1.000000 0.000000
 1.000000 0.000000
 0.000000 1.000000

8
 1.000000 0.000000
 0.000000 1.000000
 0.000000 1.000000
 0.000000 1.000000

8
 0.000000 1.000000
 0.000000 1.000000
 0.000000 1.000000
 1.000000 0.000000

8
 1.000000 0.000000
 0.000000 1.000000
 0.000000 1.000000
 0.000000 1.000000

8
 1.000000 0.000000
 0.000000 1.000000
 0.000000 1.000000
 0.000000 1.000000

8
 0.000000 1.000000
 1.000000 0.000000
 1.000000 0.000000
 1.000000 0.000000

8
 0.000000 1.000000
 1.000000 0.000000
 1.000000 0.000000
 1.000000 0.000000

8
 0.000000 1.000000
 1.000000 0.000000
 1.000000 0.000000
 1.000000 0.000000

8
 0.000000 1.000000
 0.000000 1.000000
 0.000000 1.000000
 1.000000 0.000000

8
 0.000000 1.000000
 1.000000 0.000000
 1.000000 0.000000
 1.000000 0.000000

8
 0.000000 1.000000
 0.000000 1.000000
 0.000000 1.000000
 1.000000 0.000000

8
 1.000000 0.000000
 0.000000 1.000000
 0.000000 1.000000
 0.000000 1.000000

4
 0.000000 1.000000
 1.000000 0.000000

16
 0.000000 1.000000
 1.000000 0.000000
 1.000000 0.000000
 1.000000 0.000000
 1.000000 0.000000
 1.000000 0.000000
 1.000000 0.000000
 1.000000 0.000000

8
 0.000000 1.000000
 0.000000 1.000000
 0.000000 1.000000
 1.000000 0.000000

2
 0.500000 0.500000

8
 1.000000 0.000000
 0.000000 1.000000
 0.000000 1.000000
 0.000000 1.000000

16
 0.000000 1.000000
 0.000000 1.000000
 0.000000 1.000000
 0.000000 1.000000
 0.000000 1.000000
 0.000000 1.000000
 0.000000 1.000000
 1.000000 0.000000

8
 0.000000 1.000000
 1.000000 0.000000
 1.000000 0.000000
 1.000000 0.000000

8
 0.000000 1.000000
 1.000000 0.000000
 1.000000 0.000000
 1.000000 0.000000

16
 0.000000 1.000000
 1.000000 0.000000
 1.000000 0.000000
 1.000000 0.000000
 1.000000 0.000000
 1.000000 0.000000
 1.000000 0.000000
 1.000000 0.000000

8
 0.000000 1.000000
 0.000000 1.000000
 0.000000 1.000000
 1.000000 0.000000

4
 0.000000 1.000000
 1.000000 0.000000

8
 1.000000 0.000000
 1.000000 0.000000
 1.000000 0.000000
 0.000000 1.000000

8
 0.000000 1.000000
 0.000000 1.000000
 0.000000 1.000000
 1.000000 0.000000

4
 0.000000 1.000000
 1.000000 0.000000

8
 0.000000 1.000000
 1.000000 0.000000
 1.000000 0.000000
 1.000000 0.000000

4
 0.000000 1.000000
 1.000000 0.000000

8
 1.000000 0.000000
 1.000000 0.000000
 1.000000 0.000000
 0.000000 1.000000

8
 1.000000 0.000000
 1.000000 0.000000
 1.000000 0.000000
 0.000000 1.000000

2
 0.500000 0.500000

8
 0.000000 1.000000
 0.000000 1.000000
 0.000000 1.000000
 1.000000 0.000000

4
 0.000000 1.000000
 1.000000 0.000000

8
 0.000000 1.000000
 0.000000 1.000000
 0.000000 1.000000
 1.000000 0.000000

8
 1.000000 0.000000
 0.000000 1.000000
 0.000000 1.000000
 0.000000 1.000000

8
 0.000000 1.000000
 1.000000 0.000000
 1.000000 0.000000
 1.000000 0.000000

4
 0.000000 1.000000
 1.000000 0.000000

8
 1.000000 0.000000
 0.000000 1.000000
 0.000000 1.000000
 0.000000 1.000000

8
 0.000000 1.000000
 1.000000 0.000000
 1.000000 0.000000
 1.000000 0.000000

8
 0.000000 1.000000
 0.000000 1.000000
 0.000000 1.000000
 1.000000 0.000000

8
 0.000000 1.000000
 1.000000 0.000000
 1.000000 0.000000
 1.000000 0.000000

8
 0.000000 1.000000
 0.000000 1.000000
 0.000000 1.000000
 1.000000 0.000000

8
 0.000000 1.000000
 1.000000 0.000000
 1.000000 0.000000
 1.000000 0.000000

4
 0.000000 1.000000
 1.000000 0.000000

4
 0.000000 1.000000
 1.000000 0.000000

8
 0.000000 1.000000
 0.000000 1.000000
 0.000000 1.000000
 1.000000 0.000000

8
 0.000000 1.000000
 1.000000 0.000000
 1.000000 0.000000
 1.000000 0.000000

4
 0.000000 1.000000
 1.000000 0.000000

8
 1.000000 0.000000
 1.000000 0.000000
 1.000000 0.000000
 0.000000 1.000000

8
 0.000000 1.000000
 0.000000 1.000000
 0.000000 1.000000
 1.000000 0.000000

8
 1.000000 0.000000
 1.000000 0.000000
 1.000000 0.000000
 0.000000 1.000000

2
 0.500000 0.500000

4
 0.000000 1.000000
 1.000000 0.000000

8
 1.000000 0.000000
 1.000000 0.000000
 1.000000 0.000000
 0.000000 1.000000

8
 0.000000 1.000000
 1.000000 0.000000
 1.000000 0.000000
 1.000000 0.000000

8
 0.000000 1.000000
 0.000000 1.000000
 0.000000 1.000000
 1.000000 0.000000

8
 0.000000 1.000000
 0.000000 1.000000
 0.000000 1.000000
 1.000000 0.000000

2
 0.500000 0.500000

4
 0.000000 1.000000
 1.000000 0.000000

8
 0.000000 1.000000
 0.000000 1.000000
 0.000000 1.000000
 1.000000 0.000000

8
 1.000000 0.000000
 0.000000 1.000000
 0.000000 1.000000
 0.000000 1.000000

16
 0.000000 1.000000
 1.000000 0.000000
 1.000000 0.000000
 1.000000 0.000000
 1.000000 0.000000
 1.000000 0.000000
 1.000000 0.000000
 1.000000 0.000000

8
 0.000000 1.000000
 0.000000 1.000000
 0.000000 1.000000
 1.000000 0.000000

8
 0.000000 1.000000
 1.000000 0.000000
 1.000000 0.000000
 1.000000 0.000000

4
 0.000000 1.000000
 1.000000 0.000000

8
 0.000000 1.000000
 0.000000 1.000000
 0.000000 1.000000
 1.000000 0.000000

8
 0.000000 1.000000
 1.000000 0.000000
 1.000000 0.000000
 1.000000 0.000000

8
 1.000000 0.000000
 1.000000 0.000000
 1.000000 0.000000
 0.000000 1.000000

8
 0.000000 1.000000
 0.000000 1.000000
 0.000000 1.000000
 1.000000 0.000000

2
 0.500000 0.500000

4
 0.000000 1.000000
 1.000000 0.000000

8
 0.000000 1.000000
 1.000000 0.000000
 1.000000 0.000000
 1.000000 0.000000

8
 0.000000 1.000000
 0.000000 1.000000
 0.000000 1.000000
 1.000000 0.000000

8
 1.000000 0.000000
 0.000000 1.000000
 0.000000 1.000000
 0.000000 1.000000

16
 0.000000 1.000000
 1.000000 0.000000
 1.000000 0.000000
 1.000000 0.000000
 1.000000 0.000000
 1.000000 0.000000
 1.000000 0.000000
 1.000000 0.000000

8
 1.000000 0.000000
 1.000000 0.000000
 1.000000 0.000000
 0.000000 1.000000

2
 0.500000 0.500000

8
 0.000000 1.000000
 1.000000 0.000000
 1.000000 0.000000
 1.000000 0.000000

4
 0.000000 1.000000
 1.000000 0.000000

8
 1.000000 0.000000
 0.000000 1.000000
 0.000000 1.000000
 0.000000 1.000000

8
 0.000000 1.000000
 1.000000 0.000000
 1.000000 0.000000
 1.000000 0.000000

4
 0.000000 1.000000
 1.000000 0.000000

8
 0.000000 1.000000
 1.000000 0.000000
 1.000000 0.000000
 1.000000 0.000000

16
 0.000000 1.000000
 0.000000 1.000000
 0.000000 1.000000
 0.000000 1.000000
 0.000000 1.000000
 0.000000 1.000000
 0.000000 1.000000
 1.000000 0.000000

8
 1.000000 0.000000
 0.000000 1.000000
 0.000000 1.000000
 0.000000 1.000000

8
 0.000000 1.000000
 1.000000 0.000000
 1.000000 0.000000
 1.000000 0.000000

2
 0.500000 0.500000

4
 0.000000 1.000000
 1.000000 0.000000

16
 0.000000 1.000000
 0.000000 1.000000
 0.000000 1.000000
 0.000000 1.000000
 0.000000 1.000000
 0.000000 1.000000
 0.000000 1.000000
 1.000000 0.000000

8
 0.000000 1.000000
 0.000000 1.000000
 0.000000 1.000000
 1.000000 0.000000

4
 0.000000 1.000000
 1.000000 0.000000

4
 0.000000 1.000000
 1.000000 0.000000

8
 1.000000 0.000000
 1.000000 0.000000
 1.000000 0.000000
 0.000000 1.000000

8
 0.000000 1.000000
 1.000000 0.000000
 1.000000 0.000000
 1.000000 0.000000

2
 0.500000 0.500000

2
 0.500000 0.500000

8
 0.000000 1.000000
 0.000000 1.000000
 0.000000 1.000000
 1.000000 0.000000

2
 0.500000 0.500000

4
 0.000000 1.000000
 1.000000 0.000000

8
 0.000000 1.000000
 0.000000 1.000000
 0.000000 1.000000
 1.000000 0.000000

8
 0.000000 1.000000
 0.000000 1.000000
 0.000000 1.000000
 1.000000 0.000000

2
 0.500000 0.500000

8
 0.000000 1.000000
 1.000000 0.000000
 1.000000 0.000000
 1.000000 0.000000

4
 0.000000 1.000000
 1.000000 0.000000

8
 0.000000 1.000000
 0.000000 1.000000
 0.000000 1.000000
 1.000000 0.000000

8
 1.000000 0.000000
 0.000000 1.000000
 0.000000 1.000000
 0.000000 1.000000

4
 0.000000 1.000000
 1.000000 0.000000

16
 0.000000 1.000000
 1.000000 0.000000
 1.000000 0.000000
 1.000000 0.000000
 1.000000 0.000000
 1.000000 0.000000
 1.000000 0.000000
 1.000000 0.000000

8
 1.000000 0.000000
 1.000000 0.000000
 1.000000 0.000000
 0.000000 1.000000

8
 0.000000 1.000000
 0.000000 1.000000
 0.000000 1.000000
 1.000000 0.000000

4
 0.000000 1.000000
 1.000000 0.000000

8
 0.000000 1.000000
 0.000000 1.000000
 0.000000 1.000000
 1.000000 0.000000

16
 0.000000 1.000000
 1.000000 0.000000
 1.000000 0.000000
 1.000000 0.000000
 1.000000 0.000000
 1.000000 0.000000
 1.000000 0.000000
 1.000000 0.000000

8
 0.000000 1.000000
 1.000000 0.000000
 1.000000 0.000000
 1.000000 0.000000

8
 1.000000 0.000000
 0.000000 1.000000
 0.000000 1.000000
 0.000000 1.000000

8
 1.000000 0.000000
 1.000000 0.000000
 1.000000 0.000000
 0.000000 1.000000

8
 0.000000 1.000000
 0.000000 1.000000
 0.000000 1.000000
 1.000000 0.000000

8
 0.000000 1.000000
 0.000000 1.000000
 0.000000 1.000000
 1.000000 0.000000

32
 0.000000 1.000000
 0.000000 1.000000
 0.000000 1.000000
 0.000000 1.000000
 0.000000 1.000000
 0.000000 1.000000
 0.000000 1.000000
 0.000000 1.000000
 0.000000 1.000000
 0.000000 1.000000
 0.000000 1.000000
 0.000000 1.000000
 0.000000 1.000000
 0.000000 1.000000
 0.000000 1.000000
 1.000000 0.000000

8
 0.000000 1.000000
 1.000000 0.000000
 1.000000 0.000000
 1.000000 0.000000

8
 0.000000 1.000000
 0.000000 1.000000
 0.000000 1.000000
 1.000000 0.000000

8
 0.000000 1.000000
 1.000000 0.000000
 1.000000 0.000000
 1.000000 0.000000

8
 0.000000 1.000000
 0.000000 1.000000
 0.000000 1.000000
 1.000000 0.000000

4
 0.000000 1.000000
 1.000000 0.000000

8
 1.000000 0.000000
 1.000000 0.000000
 1.000000 0.000000
 0.000000 1.000000

8
 0.000000 1.000000
 0.000000 1.000000
 0.000000 1.000000
 1.000000 0.000000

8
 0.000000 1.000000
 0.000000 1.000000
 0.000000 1.000000
 1.000000 0.000000

8
 0.000000 1.000000
 1.000000 0.000000
 1.000000 0.000000
 1.000000 0.000000

8
 0.000000 1.000000
 0.000000 1.000000
 0.000000 1.000000
 1.000000 0.000000

8
 0.000000 1.000000
 0.000000 1.000000
 0.000000 1.000000
 1.000000 0.000000

8
 0.000000 1.000000
 1.000000 0.000000
 1.000000 0.000000
 1.000000 0.000000

8
 1.000000 0.000000
 1.000000 0.000000
 1.000000 0.000000
 0.000000 1.000000

8
 1.000000 0.000000
 1.000000 0.000000
 1.000000 0.000000
 0.000000 1.000000

4
 0.000000 1.000000
 1.000000 0.000000

8
 0.000000 1.000000
 1.000000 0.000000
 1.000000 0.000000
 1.000000 0.000000

8
 0.000000 1.000000
 0.000000 1.000000
 0.000000 1.000000
 1.000000 0.000000

8
 1.000000 0.000000
 1.000000 0.000000
 1.000000 0.000000
 0.000000 1.000000

8
 1.000000 0.000000
 1.000000 0.000000
 1.000000 0.000000
 0.000000 1.000000

2
 0.500000 0.500000

4
 0.000000 1.000000
 1.000000 0.000000

8
 1.000000 0.000000
 0.000000 1.000000
 0.000000 1.000000
 0.000000 1.000000

4
 0.000000 1.000000
 1.000000 0.000000

4
 0.000000 1.000000
 1.000000 0.000000

8
 0.000000 1.000000
 1.000000 0.000000
 1.000000 0.000000
 1.000000 0.000000

2
 0.500000 0.500000

2
 0.500000 0.500000

8
 0.000000 1.000000
 0.000000 1.000000
 0.000000 1.000000
 1.000000 0.000000

8
 0.000000 1.000000
 1.000000 0.000000
 1.000000 0.000000
 1.000000 0.000000

16
 0.000000 1.000000
 0.000000 1.000000
 0.000000 1.000000
 0.000000 1.000000
 0.000000 1.000000
 0.000000 1.000000
 0.000000 1.000000
 1.000000 0.000000

2
 0.500000 0.500000

8
 0.000000 1.000000
 1.000000 0.000000
 1.000000 0.000000
 1.000000 0.000000

8
 1.000000 0.000000
 0.000000 1.000000
 0.000000 1.000000
 0.000000 1.000000

8
 0.000000 1.000000
 1.000000 0.000000
 1.000000 0.000000
 1.000000 0.000000

8
 0.000000 1.000000
 1.000000 0.000000
 1.000000 0.000000
 1.000000 0.000000

8
 1.000000 0.000000
 1.000000 0.000000
 1.000000 0.000000
 0.000000 1.000000

8
 0.000000 1.000000
 1.000000 0.000000
 1.000000 0.000000
 1.000000 0.000000

4
 0.000000 1.000000
 1.000000 0.000000

8
 0.000000 1.000000
 0.000000 1.000000
 0.000000 1.000000
 1.000000 0.000000

8
 0.000000 1.000000
 0.000000 1.000000
 0.000000 1.000000
 1.000000 0.000000

2
 0.500000 0.500000

8
 0.000000 1.000000
 1.000000 0.000000
 1.000000 0.000000
 1.000000 0.000000

8
 0.000000 1.000000
 0.000000 1.000000
 0.000000 1.000000
 1.000000 0.000000

8
 0.000000 1.000000
 0.000000 1.000000
 0.000000 1.000000
 1.000000 0.000000

16
 0.000000 1.000000
 1.000000 0.000000
 1.000000 0.000000
 1.000000 0.000000
 1.000000 0.000000
 1.000000 0.000000
 1.000000 0.000000
 1.000000 0.000000

4
 0.000000 1.000000
 1.000000 0.000000

8
 1.000000 0.000000
 1.000000 0.000000
 1.000000 0.000000
 0.000000 1.000000

8
 0.000000 1.000000
 0.000000 1.000000
 0.000000 1.000000
 1.000000 0.000000

16
 0.000000 1.000000
 0.000000 1.000000
 0.000000 1.000000
 0.000000 1.000000
 0.000000 1.000000
 0.000000 1.000000
 0.000000 1.000000
 1.000000 0.000000

16
 0.000000 1.000000
 0.000000 1.000000
 0.000000 1.000000
 0.000000 1.000000
 0.000000 1.000000
 0.000000 1.000000
 0.000000 1.000000
 1.000000 0.000000

8
 1.000000 0.000000
 0.000000 1.000000
 0.000000 1.000000
 0.000000 1.000000

16
 0.000000 1.000000
 0.000000 1.000000
 0.000000 1.000000
 0.000000 1.000000
 0.000000 1.000000
 0.000000 1.000000
 0.000000 1.000000
 1.000000 0.000000

16
 0.000000 1.000000
 0.000000 1.000000
 0.000000 1.000000
 0.000000 1.000000
 0.000000 1.000000
 0.000000 1.000000
 0.000000 1.000000
 1.000000 0.000000

8
 0.000000 1.000000
 1.000000 0.000000
 1.000000 0.000000
 1.000000 0.000000

8
 0.000000 1.000000
 1.000000 0.000000
 1.000000 0.000000
 1.000000 0.000000

4
 0.000000 1.000000
 1.000000 0.000000

4
 0.000000 1.000000
 1.000000 0.000000

8
 0.000000 1.000000
 1.000000 0.000000
 1.000000 0.000000
 1.000000 0.000000

8
 1.000000 0.000000
 0.000000 1.000000
 0.000000 1.000000
 0.000000 1.000000

2
 0.500000 0.500000

4
 0.000000 1.000000
 1.000000 0.000000

8
 0.000000 1.000000
 0.000000 1.000000
 0.000000 1.000000
 1.000000 0.000000

2
 0.500000 0.500000

16
 0.000000 1.000000
 1.000000 0.000000
 1.000000 0.000000
 1.000000 0.000000
 1.000000 0.000000
 1.000000 0.000000
 1.000000 0.000000
 1.000000 0.000000

8
 1.000000 0.000000
 1.000000 0.000000
 1.000000 0.000000
 0.000000 1.000000

8
 1.000000 0.000000
 0.000000 1.000000
 0.000000 1.000000
 0.000000 1.000000

8
 1.000000 0.000000
 1.000000 0.000000
 1.000000 0.000000
 0.000000 1.000000

8
 1.000000 0.000000
 1.000000 0.000000
 1.000000 0.000000
 0.000000 1.000000

8
 0.000000 1.000000
 0.000000 1.000000
 0.000000 1.000000
 1.000000 0.000000

8
 1.000000 0.000000
 0.000000 1.000000
 0.000000 1.000000
 0.000000 1.000000

16
 0.000000 1.000000
 0.000000 1.000000
 0.000000 1.000000
 0.000000 1.000000
 0.000000 1.000000
 0.000000 1.000000
 0.000000 1.000000
 1.000000 0.000000

4
 0.000000 1.000000
 1.000000 0.000000

8
 0.000000 1.000000
 0.000000 1.000000
 0.000000 1.000000
 1.000000 0.000000

8
 0.000000 1.000000
 0.000000 1.000000
 0.000000 1.000000
 1.000000 0.000000

8
 0.000000 1.000000
 1.000000 0.000000
 1.000000 0.000000
 1.000000 0.000000

8
 1.000000 0.000000
 0.000000 1.000000
 0.000000 1.000000
 0.000000 1.000000

8
 0.000000 1.000000
 1.000000 0.000000
 1.000000 0.000000
 1.000000 0.000000

4
 0.000000 1.000000
 1.000000 0.000000

8
 0.000000 1.000000
 0.000000 1.000000
 0.000000 1.000000
 1.000000 0.000000

4
 0.000000 1.000000
 1.000000 0.000000

4
 0.000000 1.000000
 1.000000 0.000000

2
 0.500000 0.500000

8
 0.000000 1.000000
 1.000000 0.000000
 1.000000 0.000000
 1.000000 0.000000

8
 0.000000 1.000000
 1.000000 0.000000
 1.000000 0.000000
 1.000000 0.000000

4
 0.000000 1.000000
 1.000000 0.000000

8
 0.000000 1.000000
 1.000000 0.000000
 1.000000 0.000000
 1.000000 0.000000

8
 0.000000 1.000000
 1.000000 0.000000
 1.000000 0.000000
 1.000000 0.000000

8
 0.000000 1.000000
 0.000000 1.000000
 0.000000 1.000000
 1.000000 0.000000

16
 0.000000 1.000000
 0.000000 1.000000
 0.000000 1.000000
 0.000000 1.000000
 0.000000 1.000000
 0.000000 1.000000
 0.000000 1.000000
 1.000000 0.000000

4
 0.000000 1.000000
 1.000000 0.000000

8
 0.000000 1.000000
 0.000000 1.000000
 0.000000 1.000000
 1.000000 0.000000

8
 0.000000 1.000000
 1.000000 0.000000
 1.000000 0.000000
 1.000000 0.000000

8
 0.000000 1.000000
 0.000000 1.000000
 0.000000 1.000000
 1.000000 0.000000

8
 0.000000 1.000000
 1.000000 0.000000
 1.000000 0.000000
 1.000000 0.000000

8
 1.000000 0.000000
 1.000000 0.000000
 1.000000 0.000000
 0.000000 1.000000

8
 1.000000 0.000000
 0.000000 1.000000
 0.000000 1.000000
 0.000000 1.000000

4
 0.000000 1.000000
 1.000000 0.000000

8
 1.000000 0.000000
 0.000000 1.000000
 0.000000 1.000000
 0.000000 1.000000

8
 0.000000 1.000000
 1.000000 0.000000
 1.000000 0.000000
 1.000000 0.000000

8
 1.000000 0.000000
 1.000000 0.000000
 1.000000 0.000000
 0.000000 1.000000

2
 0.500000 0.500000

8
 1.000000 0.000000
 1.000000 0.000000
 1.000000 0.000000
 0.000000 1.000000

2
 0.500000 0.500000

8
 0.000000 1.000000
 0.000000 1.000000
 0.000000 1.000000
 1.000000 0.000000

8
 1.000000 0.000000
 1.000000 0.000000
 1.000000 0.000000
 0.000000 1.000000

4
 0.000000 1.000000
 1.000000 0.000000

4
 0.000000 1.000000
 1.000000 0.000000

2
 0.500000 0.500000

4
 0.000000 1.000000
 1.000000 0.000000

8
 1.000000 0.000000
 1.000000 0.000000
 1.000000 0.000000
 0.000000 1.000000

8
 0.000000 1.000000
 1.000000 0.000000
 1.000000 0.000000
 1.000000 0.000000

8
 0.000000 1.000000
 1.000000 0.000000
 1.000000 0.000000
 1.000000 0.000000

8
 0.000000 1.000000
 1.000000 0.000000
 1.000000 0.000000
 1.000000 0.000000

8
 0.000000 1.000000
 0.000000 1.000000
 0.000000 1.000000
 1.000000 0.000000

